certificates/rado_a13_c239_N40.cnf
c Rad2 upper bound instance: x1 + 13*x2 - x3 = 239, interval [1,40]
p cnf 40 244
1 9 19 0
-1 -9 -19 0
1 20 22 0
-1 -20 -22 0
1 21 35 0
-1 -21 -35 0
2 10 19 0
-2 -10 -19 0
2 20 23 0
-2 -20 -23 0
2 21 36 0
-2 -21 -36 0
3 11 19 0
-3 -11 -19 0
3 20 24 0
-3 -20 -24 0
3 21 37 0
-3 -21 -37 0
4 12 19 0
-4 -12 -19 0
4 20 25 0
-4 -20 -25 0
4 21 38 0
-4 -21 -38 0
5 13 19 0
-5 -13 -19 0
5 20 26 0
-5 -20 -26 0
5 21 39 0
-5 -21 -39 0
1 6 18 0
-1 -6 -18 0
6 14 19 0
-6 -14 -19 0
6 20 27 0
-6 -20 -27 0
6 21 40 0
-6 -21 -40 0
2 7 18 0
-2 -7 -18 0
7 15 19 0
-7 -15 -19 0
7 20 28 0
-7 -20 -28 0
3 8 18 0
-3 -8 -18 0
8 16 19 0
-8 -16 -19 0
8 20 29 0
-8 -20 -29 0
4 9 18 0
-4 -9 -18 0
9 17 19 0
-9 -17 -19 0
9 20 30 0
-9 -20 -30 0
5 10 18 0
-5 -10 -18 0
10 18 19 0
-10 -18 -19 0
10 20 31 0
-10 -20 -31 0
6 11 18 0
-6 -11 -18 0
11 19 0
-11 -19 0
11 20 32 0
-11 -20 -32 0
7 12 18 0
-7 -12 -18 0
12 19 20 0
-12 -19 -20 0
12 20 33 0
-12 -20 -33 0
8 13 18 0
-8 -13 -18 0
13 19 21 0
-13 -19 -21 0
13 20 34 0
-13 -20 -34 0
9 14 18 0
-9 -14 -18 0
14 19 22 0
-14 -19 -22 0
14 20 35 0
-14 -20 -35 0
10 15 18 0
-10 -15 -18 0
15 19 23 0
-15 -19 -23 0
15 20 36 0
-15 -20 -36 0
11 16 18 0
-11 -16 -18 0
16 19 24 0
-16 -19 -24 0
16 20 37 0
-16 -20 -37 0
12 17 18 0
-12 -17 -18 0
17 19 25 0
-17 -19 -25 0
17 20 38 0
-17 -20 -38 0
13 18 0
-13 -18 0
18 19 26 0
-18 -19 -26 0
18 20 39 0
-18 -20 -39 0
1 17 19 0
-1 -17 -19 0
14 18 19 0
-14 -18 -19 0
19 27 0
-19 -27 0
19 20 40 0
-19 -20 -40 0
2 17 20 0
-2 -17 -20 0
15 18 20 0
-15 -18 -20 0
19 20 28 0
-19 -20 -28 0
3 17 21 0
-3 -17 -21 0
16 18 21 0
-16 -18 -21 0
19 21 29 0
-19 -21 -29 0
4 17 22 0
-4 -17 -22 0
17 18 22 0
-17 -18 -22 0
19 22 30 0
-19 -22 -30 0
5 17 23 0
-5 -17 -23 0
18 23 0
-18 -23 0
19 23 31 0
-19 -23 -31 0
6 17 24 0
-6 -17 -24 0
18 19 24 0
-18 -19 -24 0
19 24 32 0
-19 -24 -32 0
7 17 25 0
-7 -17 -25 0
18 20 25 0
-18 -20 -25 0
19 25 33 0
-19 -25 -33 0
8 17 26 0
-8 -17 -26 0
18 21 26 0
-18 -21 -26 0
19 26 34 0
-19 -26 -34 0
9 17 27 0
-9 -17 -27 0
18 22 27 0
-18 -22 -27 0
19 27 35 0
-19 -27 -35 0
10 17 28 0
-10 -17 -28 0
18 23 28 0
-18 -23 -28 0
19 28 36 0
-19 -28 -36 0
11 17 29 0
-11 -17 -29 0
18 24 29 0
-18 -24 -29 0
19 29 37 0
-19 -29 -37 0
12 17 30 0
-12 -17 -30 0
18 25 30 0
-18 -25 -30 0
19 30 38 0
-19 -30 -38 0
13 17 31 0
-13 -17 -31 0
18 26 31 0
-18 -26 -31 0
19 31 39 0
-19 -31 -39 0
1 16 32 0
-1 -16 -32 0
14 17 32 0
-14 -17 -32 0
18 27 32 0
-18 -27 -32 0
19 32 40 0
-19 -32 -40 0
2 16 33 0
-2 -16 -33 0
15 17 33 0
-15 -17 -33 0
18 28 33 0
-18 -28 -33 0
3 16 34 0
-3 -16 -34 0
16 17 34 0
-16 -17 -34 0
18 29 34 0
-18 -29 -34 0
4 16 35 0
-4 -16 -35 0
17 35 0
-17 -35 0
18 30 35 0
-18 -30 -35 0
5 16 36 0
-5 -16 -36 0
17 18 36 0
-17 -18 -36 0
18 31 36 0
-18 -31 -36 0
6 16 37 0
-6 -16 -37 0
17 19 37 0
-17 -19 -37 0
18 32 37 0
-18 -32 -37 0
7 16 38 0
-7 -16 -38 0
18 33 38 0
-18 -33 -38 0
8 16 39 0
-8 -16 -39 0
17 21 39 0
-17 -21 -39 0
18 34 39 0
-18 -34 -39 0
9 16 40 0
-9 -16 -40 0
17 22 40 0
-17 -22 -40 0
18 35 40 0
-18 -35 -40 0
