certificates/rado_a13_c239_N40.drat
20 -35 -36 -40 0
-35 -36 -40 0
d 20 -35 -36 -40 0
-36 -37 -38 -40 0
-17 -37 -39 0
-37 -38 -39 -40 0
-35 -40 0
d -35 -36 -40 0
-38 -39 -40 0
d -37 -38 -39 -40 0
-39 35 0
19 37 -17 0
-19 -40 0
-40 0
-37 -17 0
d -37 -39 -17 0
-17 0
35 0
22 0
-19 0
11 0
27 0
1 0
20 0
32 0
37 0
9 0
25 0
-18 0
-21 0
0
